p wcnf 2000 200 1
1 1 0
1 2 0
1 3 0
1 4 0
1 5 0
1 6 0
1 7 0
1 8 0
1 9 0
1 10 0
1 11 0
1 12 0
1 1 1 1 1 2 2 2 2 2 2 2 0
1 2 2 2 2 2 2 2 2 2 2 2 0
1 3 3 3 3 3 3 3 3 3 3 3 0
1 3 3 3 3 3 3 3 3 3 3 3 0
1 4 4 4 4 4 4 4 4 4 4 4 0
1 4 4 4 4 4 4 4 4 4 4 4 0
1 5 5 5 5 5 5 5 5 5 5 5 0
1 5 5 5 5 5 5 5 5 5 6 6 0
1 6 6 6 6 6 6 6 6 6 6 6 0
1 6 6 6 6 6 6 7 7 7 7 7 0
1 8 8 8 8 8 8 8 8 8 8 8 0
1 8 8 8 8 8 8 8 8 8 9 9 0
1 9 9 9 9 9 9 9 9 9 9 9 0
1 9 9 9 9 9 9 10 10 10 10 10 0
1 10 10 10 10 10 10 10 10 10 10 10 0
1 11 11 11 11 11 11 11 11 11 11 11 0
1 11 11 11 11 11 11 11 11 11 11 11 0
1 12 12 12 12 12 12 12 12 12 12 12 0
1 12 13 13 13 13 13 13 13 13 13 13 0
1 13 13 13 13 13 13 13 13 14 14 14 0
1 14 14 14 14 14 14 14 14 14 14 14 0
1 15 15 15 15 15 15 15 15 15 15 15 0
1 15 15 15 15 15 15 15 15 15 15 15 0
1 16 16 16 16 16 16 16 16 16 16 16 0
1 17 17 17 17 17 17 17 17 17 17 17 0
1 17 17 17 17 17 17 17 17 17 17 17 0
1 17 17 17 18 18 18 18 18 18 18 18 0
1 18 18 18 18 18 18 18 18 18 18 18 0
1 19 19 19 19 19 19 19 19 19 19 19 0
1 19 19 19 19 19 19 19 19 20 20 20 0
1 20 20 20 20 20 20 20 20 20 20 20 0
1 20 20 20 21 21 21 21 21 21 21 21 0
1 21 21 21 21 21 21 21 21 21 21 21 0
1 22 22 22 22 22 22 22 22 22 22 22 0
1 22 22 22 22 22 22 22 22 22 22 22 0
1 22 23 23 23 23 23 23 23 23 23 23 0
1 23 23 23 23 23 23 23 24 24 24 24 0
1 24 24 24 24 24 24 24 24 24 24 24 0
1 25 25 25 25 25 25 25 25 25 25 25 0
1 25 25 25 26 26 26 26 26 26 26 26 0
1 26 26 26 26 26 26 26 26 26 26 27 0
1 27 27 27 27 27 27 27 27 27 27 27 0
1 27 27 27 27 27 27 27 27 27 27 27 0
1 28 28 28 28 28 28 28 28 28 28 28 0
1 28 28 28 28 28 28 28 28 28 28 29 0
1 29 29 29 29 29 29 29 29 29 29 29 0
1 29 29 29 29 29 29 29 29 30 30 30 0
1 30 30 30 30 30 30 30 30 30 30 30 0
1 30 30 30 31 31 31 31 31 31 31 31 0
1 31 31 31 31 31 31 31 31 31 31 31 0
1 31 32 32 32 32 32 32 32 32 32 32 0
1 32 32 32 32 32 32 32 33 33 33 33 0
1 33 33 33 33 33 33 33 33 33 33 33 0
1 34 34 34 34 34 34 34 34 34 34 34 0
1 34 34 34 35 35 35 35 35 35 35 35 0
1 35 35 35 35 35 35 35 35 35 35 35 0
1 35 36 36 36 36 36 36 36 36 36 36 0
1 36 36 36 36 36 36 36 36 36 36 36 0
1 37 37 37 37 37 37 37 37 37 37 37 0
1 37 37 37 37 37 37 37 37 37 37 38 0
1 38 38 38 38 38 38 38 38 38 38 38 0
1 38 38 38 38 38 38 38 38 39 39 39 0
1 39 39 39 39 39 39 39 39 39 39 39 0
1 40 40 40 40 40 40 40 40 40 40 40 0
1 40 40 40 40 40 41 41 41 41 41 41 0
1 41 41 41 41 41 41 41 41 41 41 41 0
1 42 42 42 42 42 42 42 42 42 42 42 0
1 42 42 42 42 43 43 43 43 43 43 43 0
1 43 43 43 43 43 43 43 44 44 44 44 0
1 44 44 44 44 44 44 44 44 44 44 44 0
1 44 44 44 45 45 45 45 45 45 45 45 0
1 45 45 45 45 45 45 45 45 45 46 46 0
1 46 46 46 46 46 46 46 46 46 46 46 0
1 46 46 46 46 46 46 46 46 47 47 47 0
1 47 47 47 47 47 47 47 47 47 47 48 0
1 48 48 48 48 48 48 48 48 48 48 48 0
1 48 49 49 49 49 49 49 49 49 49 49 0
1 49 49 49 49 49 49 49 49 50 50 50 0
1 50 50 50 50 50 50 50 50 50 50 51 0
1 51 51 51 51 51 51 51 51 51 51 51 0
1 51 51 51 51 52 52 52 52 52 52 52 0
1 52 52 53 53 53 53 53 53 53 53 53 0
1 53 53 53 53 53 53 53 53 53 54 54 0
1 54 54 54 54 54 54 54 54 54 54 54 0
1 54 54 54 54 54 55 55 55 55 55 55 0
1 55 55 55 55 55 55 55 55 55 55 55 0
1 55 55 56 56 56 56 56 56 56 56 56 0
1 56 56 56 56 56 56 56 56 56 56 56 0
1 56 57 57 57 57 57 57 57 57 57 57 0
1 57 57 57 57 57 58 58 58 58 58 58 0
1 58 58 58 58 58 58 58 58 58 58 58 0
1 58 59 59 59 59 59 59 59 59 59 59 0
1 59 59 59 59 59 60 60 60 60 60 60 0
1 60 60 60 60 60 60 60 60 60 60 60 0
1 60 60 60 60 60 60 60 60 61 61 61 0
1 61 61 61 61 61 61 61 61 61 61 61 0
1 61 61 61 61 61 61 62 62 62 62 62 0
1 62 62 62 62 62 62 62 62 62 62 62 0
1 63 63 63 63 63 63 63 63 63 63 63 0
1 63 63 64 64 64 64 64 64 64 64 64 0
1 64 64 64 64 64 64 65 65 65 65 65 0
1 65 65 65 65 65 65 65 65 65 65 65 0
1 65 65 65 65 65 65 65 65 65 65 66 0
1 66 66 66 66 66 66 66 66 66 66 66 0
1 66 66 66 66 66 66 67 67 67 67 67 0
1 67 67 67 67 67 67 67 67 67 67 67 0
1 67 67 67 67 67 67 68 68 68 68 68 0
1 68 68 68 68 68 68 68 68 68 68 68 0
1 68 68 68 68 68 69 69 69 69 69 69 0
1 69 69 69 69 69 69 69 69 69 69 69 0
1 70 70 70 70 70 70 70 70 70 70 70 0
1 70 70 70 70 70 71 71 71 71 71 71 0
1 71 71 71 71 71 71 71 71 71 71 71 0
1 71 71 71 71 71 71 71 72 72 72 72 0
1 72 72 72 72 72 72 72 72 72 72 72 0
1 72 73 73 73 73 73 73 73 73 73 73 0
1 73 73 73 73 73 73 73 73 73 73 73 0
1 73 73 73 73 74 74 74 74 74 74 74 0
1 74 74 74 74 74 74 74 74 74 74 74 0
1 74 74 74 75 75 75 75 75 75 75 75 0
1 75 75 75 75 75 75 75 75 76 76 76 0
1 76 76 76 76 76 76 76 76 76 76 76 0
1 76 76 76 76 76 76 76 77 77 77 77 0
1 77 77 77 77 77 77 77 77 77 77 77 0
1 77 78 78 78 78 78 78 78 78 78 78 0
1 78 78 78 78 78 78 78 78 78 78 78 0
1 78 78 79 79 79 79 79 79 79 79 79 0
1 79 79 79 79 79 79 79 79 79 79 79 0
1 79 79 79 79 79 80 80 80 80 80 80 0
1 80 80 80 80 80 80 80 80 80 80 80 0
1 80 80 80 80 81 81 81 81 81 81 81 0
1 81 81 81 81 81 81 81 81 81 81 81 0
1 81 82 82 82 82 82 82 82 82 82 82 0
1 82 82 82 82 82 83 83 83 83 83 83 0
1 83 83 83 83 83 83 83 83 83 83 83 0
1 83 83 83 83 83 83 83 84 84 84 84 0
1 84 84 84 84 84 84 84 84 84 85 85 0
1 85 85 85 85 85 85 85 85 85 85 85 0
1 86 86 86 86 86 86 86 86 86 86 86 0
1 86 86 86 87 87 87 87 87 87 87 87 0
1 87 87 87 87 87 87 87 87 87 87 87 0
1 88 88 88 88 88 88 88 88 88 88 88 0
1 88 88 88 88 88 88 89 89 89 89 89 0
1 89 89 89 89 89 89 89 89 89 89 89 0
1 89 89 89 89 89 89 89 89 90 90 90 0
1 90 90 90 90 90 90 90 90 90 90 90 0
1 90 90 91 91 91 91 91 91 91 91 91 0
1 91 91 91 91 91 91 91 91 91 91 91 0
1 91 91 91 91 92 92 92 92 92 92 92 0
1 92 92 92 92 92 92 92 92 92 92 92 0
1 92 92 92 92 93 93 93 93 93 93 93 0
1 93 93 93 93 93 93 93 93 93 93 93 0
1 93 93 93 93 93 93 93 93 93 93 93 0
1 93 93 93 93 94 94 94 94 94 94 94 0
1 94 94 94 94 94 94 94 94 94 94 94 0
1 95 95 95 95 95 95 95 95 95 95 95 0
1 95 95 95 95 95 95 95 95 95 95 95 0
1 95 95 95 95 96 96 96 96 96 96 96 0
1 96 96 96 96 96 96 96 96 97 97 97 0
1 97 97 97 97 97 97 97 97 97 97 97 0
1 97 97 97 97 97 97 97 97 98 98 98 0
1 98 98 98 98 98 98 98 98 98 98 98 0
1 98 98 98 98 98 98 98 98 98 98 99 0
1 99 99 99 99 99 99 99 99 99 99 99 0
1 99 99 99 100 100 100 100 100 100 100 100 0
1 100 100 100 100 100 100 100 0
1  0
1 105 128 162 239 252 270 329 377 407 439 598 0
1 736 755 883 1014 1106 1137 1166 1178 1179 1201 1284 0
1 1297 1353 1422 1426 1437 1542 1557 1652 1654 1713 1775 0
1  0
1  0
1 254 337 363 394 408 440 444 463 646 721 736 0
1 814 841 846 928 962 969 998 1007 1091 1296 1343 0
1 1448 1453 1516 1626 1638 1665 1693 1700 1706 1736 1751 0
1 1795 1817 1827 1839 1845 1847 1859 1970 0
1  0
1 117 261 302 352 489 587 613 641 798 826 837 0
1 985 1092 1173 1178 1188 1205 1336 1525 1543 1691 1696 0
1 1843 1876 1911 1952 0
1  0
1 14 37 156 163 351 390 486 530 657 717 813 0
1 881 900 931 952 955 963 1165 1278 1280 1288 1323 0
1 1335 1390 1410 1422 1475 1509 1604 1617 1659 1679 1686 0
1 1928 1932 0
1  0
1 111 147 157 171 176 222 421 477 496 537 553 0
1 600 615 656 674 712 718 759 768 792 804 915 0
1 981 994 1217 1232 1271 1356 1446 1486 1506 1558 1585 0
1 1645 1695 1702 1750 1918 1924 0
1  0
1 84 125 131 152 168 175 207 331 475 562 588 0
1 692 700 717 772 840 885 950 952 968 980 1008 0
1 1133 1165 1194 1208 1254 1318 1345 1364 1377 1401 1424 0
1 1563 1585 1600 1607 1678 1732 1824 1825 1893 1930 1963 0
1  0
1 140 165 168 203 220 357 406 416 448 453 508 0
1 579 647 661 690 743 885 906 946 947 1158 1172 0
1 1211 1212 1272 1321 1326 1335 1357 1381 1422 1516 1536 0
1 1569 1652 1755 1767 1768 1779 1830 1834 1892 1902 1965 0
